-99 -99 000 000 000 -99 -99 000 -99 -99 -99 -99 -99 000 -99 -99 -99 -99 -99 000 -99 -99 -99 -99 -99 000 000 000 000 000 000
-99 -99 000 000 000 000 000 000 -99 -99 -99 -99 -99 -99 -99 -99 -99 -99 -99 000 000 -99 000 -99 -99 000 000 -99 000 000 000
000 000 000 000 000 000 000 000 000 -99 -99 -99 -99 -99 -99 -99 -99 -99 -99 -99 000 -99 000 -99 -99 000 000 000 000 000 000
000 000 000 000 000 000 000 000 000 000 -99 -99 -99 -99 000 000 -99 -99 -99 -99 000 -99 -99 000 000 000 000 000 000 -99 -99
000 000 000 000 000 000 000 000 000 000 -99 -99 000 -99 -99 000 000 -99 -99 -99 000 000 -99 000 000 000 000 000 -99 -99 -99
000 000 000 000 000 000 000 000 000 000 000 -99 000 000 000 000 000 -99 -99 -99 000 000 000 000 000 000 000 -99 -99 -99 -99
000 000 000 000 000 000 000 000 000 000 000 -99 -99 000 -99 000 -99 -99 -99 -99 000 000 000 000 000 000 000 -99 -99 -99 000
000 000 000 000 000 000 000 000 000 000 000 -99 -99 000 -99 -99 -99 000 -99 -99 000 000 000 000 000 000 -99 -99 -99 -99 000
000 000 000 000 000 000 -99 000 000 000 000 -99 -99 -99 -99 -99 -99 000 000 -99 000 000 000 000 000 000 -99 -99 -99 -99 000
000 000 000 000 000 000 -99 000 000 000 000 -99 -99 -99 -99 -99 000 000 000 -99 000 000 000 000 000 000 000 000 000 000 000
000 000 000 000 000 -99 000 000 000 000 000 000 -99 -99 -99 -99 000 000 -99 -99 000 000 000 000 000 000 000 000 000 000 000
000 000 000 000 000 000 000 000 -99 000 000 000 000 -99 -99 000 000 000 -99 -99 000 000 -99 000 000 000 000 000 000 000 000
000 000 000 000 000 000 000 000 -99 000 000 000 -99 -99 -99 000 000 000 000 -99 -99 -99 000 -99 000 000 -99 000 000 000 000
000 000 000 000 000 000 000 -99 -99 -99 000 000 -99 -99 -99 -99 -99 000 000 -99 -99 -99 000 -99 000 000 000 000 000 000 000
000 000 000 000 000 000 000 -99 -99 -99 -99 -99 -99 000 -99 -99 -99 -99 -99 -99 -99 -99 000 -99 000 000 000 000 000 000 000
000 -99 000 000 000 000 -99 000 000 -99 -99 -99 000 000 000 -99 -99 -99 -99 -99 -99 -99 000 000 000 000 -99 000 000 000 000
000 000 -99 -99 000 000 000 000 000 -99 -99 -99 000 000 000 -99 000 000 -99 -99 -99 -99 000 000 -99 000 000 000 000 000 000
000 000 000 -99 -99 -99 000 000 000 000 -99 -99 -99 000 000 -99 000 000 -99 -99 -99 -99 000 000 000 000 -99 -99 000 000 000
-99 000 000 000 -99 -99 -99 000 000 000 -99 -99 -99 -99 000 000 000 000 -99 -99 -99 -99 000 000 -99 -99 -99 000 000 000 -99
-99 000 000 000 -99 -99 -99 000 000 000 -99 -99 -99 -99 -99 000 000 000 -99 -99 -99 -99 000 000 000 -99 -99 -99 000 000 -99
000 000 000 000 000 000 000 000 000 000 004 001 -99 -99 -99 000 000 000 -99 -99 -99 -99 000 000 000 -99 -99 -99 -99 -99 -99
000 000 000 000 000 000 000 000 000 000 006 004 -99 -99 -99 000 000 000 -99 -99 -99 -99 000 -99 000 000 -99 -99 -99 -99 -99
000 000 000 000 000 000 000 000 000 -99 011 011 -99 -99 -99 000 000 000 000 -99 000 000 000 -99 000 000 -99 -99 -99 -99 -99
000 000 000 000 000 000 000 000 000 -99 001 010 -99 -99 -99 000 000 000 000 000 000 000 000 -99 000 -99 -99 -99 -99 -99 -99
000 000 000 000 000 000 000 000 000 -99 000 -99 -99 -99 -99 000 000 000 000 000 000 000 000 -99 -99 -99 -99 -99 -99 -99 -99
000 000 000 000 000 000 000 000 000 -99 -99 -99 -99 -99 -99 000 000 000 000 000 000 -99 000 -99 -99 -99 -99 -99 -99 -99 000
000 000 000 000 000 000 000 000 000 -99 -99 -99 -99 -99 -99 -99 000 000 000 -99 -99 -99 -99 -99 -99 -99 -99 -99 -99 -99 -99
000 000 000 000 000 000 000 000 000 -99 -99 -99 -99 -99 -99 000 000 000 -99 -99 -99 000 -99 -99 -99 -99 -99 -99 -99 000 000
000 000 000 000 000 000 000 000 000 000 -99 -99 -99 -99 000 000 000 000 -99 -99 000 000 -99 -99 -99 -99 -99 -99 -99 000 000
-99 000 000 000 000 000 000 000 000 000 -99 -99 -99 -99 000 000 000 000 -99 -99 000 000 -99 000 000 000 -99 -99 -99 -99 -99
-99 000 000 000 000 000 000 000 000 000 000 -99 -99 000 000 000 000 000 000 000 -99 000 -99 000 000 000 000 -99 -99 -99 -99
-99 000 000 000 000 000 000 000 000 -99 -99 -99 -99 000 000 000 000 000 000 -99 000 000 000 000 000 000 000 000 000 -99 -99
-99 000 000 000 000 000 000 000 000 000 -99 -99 -99 000 000 000 000 000 000 -99 000 000 000 000 000 000 -99 -99 000 000 000
-99 000 000 000 000 000 000 000 000 -99 -99 -99 -99 000 000 000 000 000 000 -99 000 000 000 000 000 000 000 000 000 000 000
-99 -99 000 000 000 000 000 000 -99 -99 -99 -99 -99 000 000 000 000 000 -99 000 000 000 000 000 000 000 000 000 000 000 000
000 000 000 000 000 000 000 -99 -99 000 000 -99 000 000 000 000 000 000 000 000 000 000 000 000 000 000 000 000 000 000 000
000 000 -99 000 000 -99 -99 -99 -99 -99 000 -99 000 000 000 000 000 000 000 000 000 000 000 000 000 000 000 000 000 000 000
000 000 -99 000 000 -99 -99 -99 000 -99 -99 -99 000 -99 000 000 000 000 000 000 000 000 000 000 000 000 000 -99 000 000 -99
000 000 -99 -99 000 -99 -99 -99 -99 -99 -99 -99 -99 000 000 000 000 000 -99 000 000 000 000 000 -99 000 000 -99 000 000 -99
000 000 000 000 -99 -99 -99 -99 -99 -99 -99 -99 000 000 000 000 000 000 -99 -99 000 000 000 000 -99 000 000 -99 000 000 -99
-99 000 000 000 -99 -99 -99 -99 -99 -99 -99 -99 000 000 000 000 -99 -99 -99 000 000 000 000 000 -99 000 000 000 000 000 000
000 000 -99 000 -99 -99 -99 -99 -99 -99 -99 -99 000 000 000 000 -99 -99 -99 000 000 000 000 000 000 000 000 000 000 000 000
000 000 -99 -99 -99 -99 -99 -99 -99 -99 -99 000 000 -99 -99 000 000 000 -99 000 000 000 000 -99 000 000 000 000 000 000 000
000 000 -99 -99 -99 -99 000 000 -99 -99 -99 000 000 -99 000 000 000 -99 000 000 000 000 000 -99 000 000 000 000 000 000 -99
000 000 -99 -99 -99 -99 000 000 -99 -99 -99 000 000 -99 000 000 -99 -99 000 000 000 -99 -99 000 000 000 000 000 000 -99 -99
000 -99 -99 -99 -99 -99 000 -99 -99 -99 -99 -99 000 -99 -99 -99 -99 000 000 000 -99 -99 -99 000 000 000 000 000 000 -99 -99
-99 -99 -99 -99 -99 -99 -99 -99 -99 -99 -99 -99 -99 -99 -99 -99 -99 000 000 000 -99 -99 000 000 000 000 000 000 -99 -99 -99
-99 -99 -99 -99 -99 -99 -99 -99 -99 -99 -99 -99 -99 -99 -99 -99 -99 000 000 -99 -99 000 000 000 000 000 000 000 000 -99 -99
-99 -99 -99 -99 -99 -99 -99 -99 -99 -99 -99 -99 -99 -99 -99 -99 -99 000 000 000 -99 -99 000 -99 000 000 000 000 000 -99 -99
-99 -99 -99 -99 -99 -99 -99 -99 -99 -99 -99 -99 -99 -99 -99 -99 000 000 000 000 000 000 -99 -99 000 000 000 000 000 -99 -99
-99 -99 -99 -99 -99 -99 -99 -99 -99 -99 -99 -99 -99 -99 -99 -99 -99 000 000 000 -99 -99 -99 000 -99 000 000 -99 -99 -99 -99
-99 -99 -99 -99 -99 -99 -99 -99 -99 -99 -99 -99 -99 -99 -99 -99 -99 000 000 000 000 -99 -99 000 000 000 -99 -99 -99 -99 -99
-99 -99 -99 -99 -99 -99 -99 -99 -99 -99 -99 -99 -99 -99 -99 -99 -99 -99 000 000 000 -99 000 000 000 -99 -99 -99 -99 -99 -99
-99 -99 -99 -99 -99 -99 -99 -99 -99 -99 -99 -99 -99 -99 -99 -99 -99 000 000 000 000 -99 000 000 -99 -99 -99 -99 -99 -99 -99
-99 -99 -99 -99 -99 -99 -99 -99 -99 -99 -99 -99 -99 -99 -99 -99 -99 000 000 -99 000 000 000 000 -99 -99 -99 -99 -99 -99 -99
